NAME: bip_50_1
TYPE: TSP
COMMENT: bip_50_1
DIMENSION: 50
EDGE_WEIGHT_TYPE: EUC_2D
NODE_COORD_SECTION
1 6 85
2 75 93
3 76 97
4 1 7
5 58 52
6 24 8
7 27 20
8 72 82
9 94 3
10 48 51
11 10 19
12 36 77
13 0 20
14 94 67
15 19 23
16 65 29
17 72 49
18 76 99
19 41 27
20 33 46
21 66 62
22 35 29
23 27 57
24 57 51
25 28 61
26 465 487
27 476 404
28 422 409
29 409 400
30 494 439
31 478 496
32 458 492
33 464 475
34 446 455
35 440 412
36 425 434
37 477 480
38 490 489
39 484 462
40 406 450
41 482 438
42 478 421
43 470 409
44 416 403
45 484 404
46 482 403
47 476 492
48 407 442
49 413 405
50 443 484
